
Gurobi 9.1.2 (linux64, gurobi_cl) logging started Fri Jul 30 13:55:24 2021

Using license file /opt/gurobi/gurobi.lic
Set parameter TimeLimit to value 600
Set parameter Heuristics to value 0
Set parameter Cuts to value 1
Set parameter LogFile to value 912-Cuts1-Heuristics0-glass4-0.log

Gurobi Optimizer version 9.1.2 build v9.1.2rc0 (linux64)
Copyright (c) 2021, Gurobi Optimization, LLC

Read MPS format model from file /nfs/models/mip/glass4.mps.bz2
Reading time = 0.00 seconds
glass4: 396 rows, 322 columns, 1815 nonzeros
Thread count: 4 physical cores, 8 logical processors, using up to 8 threads
Optimize a model with 396 rows, 322 columns and 1815 nonzeros
Model fingerprint: 0x0a9d9037
Variable types: 20 continuous, 302 integer (0 binary)
Coefficient statistics:
  Matrix range     [1e+00, 8e+06]
  Objective range  [1e+00, 1e+06]
  Bounds range     [1e+00, 8e+02]
  RHS range        [1e+00, 8e+06]
Presolve removed 6 rows and 6 columns
Presolve time: 0.00s
Presolved: 390 rows, 316 columns, 1803 nonzeros
Variable types: 19 continuous, 297 integer (297 binary)

Root relaxation: objective 8.000024e+08, 72 iterations, 0.00 seconds

    Nodes    |    Current Node    |     Objective Bounds      |     Work
 Expl Unexpl |  Obj  Depth IntInf | Incumbent    BestBd   Gap | It/Node Time

     0     0 8.0000e+08    0   72          - 8.0000e+08      -     -    0s
     0     0 8.0000e+08    0   72          - 8.0000e+08      -     -    0s
     0     0 8.0000e+08    0   72          - 8.0000e+08      -     -    0s
     0     0 8.0000e+08    0   74          - 8.0000e+08      -     -    0s
     0     0 8.0000e+08    0   74          - 8.0000e+08      -     -    0s
     0     2 8.0000e+08    0   74          - 8.0000e+08      -     -    0s
*  653   986             174    2.816692e+09 8.0000e+08  71.6%   4.2    0s
*  655   986             173    2.766691e+09 8.0000e+08  71.1%   4.2    0s
* 2179  1855              77    2.550021e+09 8.0000e+08  68.6%   7.5    0s
* 2552  1962             104    2.500019e+09 8.0000e+08  68.0%   7.4    0s
* 2566  1897             105    2.500019e+09 8.0000e+08  68.0%   7.4    0s
* 2602  1823             100    2.466686e+09 8.0000e+08  67.6%   7.5    0s
* 2723  1948             131    2.240022e+09 8.0000e+08  64.3%   7.4    0s
* 3223  1887              88    2.200020e+09 8.0000e+08  63.6%   7.6    0s
* 3224  1836              88    2.200020e+09 8.0000e+08  63.6%   7.6    0s
* 3378  1946             111    2.133354e+09 8.0000e+08  62.5%   7.6    0s
* 3467  1864              94    2.100018e+09 8.0000e+08  61.9%   7.9    0s
* 3469  1822              92    2.100018e+09 8.0000e+08  61.9%   7.9    0s
* 3846  1926              80    2.100017e+09 8.0000e+08  61.9%   8.6    0s
* 4188  2275              93    1.966683e+09 8.0000e+08  59.3%   8.6    0s
* 4193  2238              94    1.900016e+09 8.0000e+08  57.9%   8.6    0s
* 6114  3235              98    1.850017e+09 8.0001e+08  56.8%   9.1    0s
* 6698  3589              57    1.850017e+09 8.0001e+08  56.8%   9.3    0s
* 6990  4255              93    1.844459e+09 8.0001e+08  56.6%   9.4    0s
*11442  6815              98    1.800016e+09 8.0001e+08  55.6%   9.8    0s
*14678  8546              78    1.766682e+09 8.0001e+08  54.7%   9.9    1s
*20192 12206              68    1.760016e+09 8.0001e+08  54.5%   9.5    1s
*22222 14208              72    1.750016e+09 8.0001e+08  54.3%   9.6    1s
*24440 15379             110    1.750015e+09 8.0001e+08  54.3%   9.6    1s
*24441 15364             110    1.750015e+09 8.0001e+08  54.3%   9.6    1s
*25210 15065             103    1.733349e+09 8.0001e+08  53.8%   9.6    1s
*25211 15058             103    1.733348e+09 8.0001e+08  53.8%   9.6    1s
*37259 22093              98    1.700017e+09 8.0001e+08  52.9%   9.3    2s
*37563 17762              97    1.650017e+09 8.0001e+08  51.5%   9.3    2s
*40249 18555              56    1.633350e+09 8.0001e+08  51.0%   9.4    3s
*40250 18555              56    1.633350e+09 8.0001e+08  51.0%   9.4    3s
*51338 22947              70    1.600015e+09 8.1987e+08  48.8%   9.4    3s
*51344 22941              70    1.600015e+09 8.1987e+08  48.8%   9.4    3s
 65143 31075 9.0001e+08   33   75 1.6000e+09 9.0001e+08  43.8%   9.8    5s
*76922 37293              54    1.600014e+09 9.0001e+08  43.8%   9.8    5s
*95188 47507              47    1.600014e+09 9.0001e+08  43.8%   9.7    7s
*111339 55794              45    1.600014e+09 9.0001e+08  43.8%   9.5    8s
*111367 55637              46    1.600014e+09 9.0001e+08  43.8%   9.5    8s
*123240 60758              66    1.600013e+09 9.0770e+08  43.3%   9.4    9s
 138244 67739 infeasible   55      1.6000e+09 9.8001e+08  38.8%   9.4   10s
*158687 64930              62    1.550014e+09 1.0000e+09  35.5%   9.7   11s
*158688 64888              62    1.550013e+09 1.0000e+09  35.5%   9.7   11s
*170840 65094              82    1.500013e+09 1.0000e+09  33.3%   9.8   13s
*186623 72334              43    1.500013e+09 1.0000e+09  33.3%  10.0   14s
*186643 72109              49    1.500013e+09 1.0000e+09  33.3%  10.0   14s
 191332 74155 1.0000e+09   39   57 1.5000e+09 1.0000e+09  33.3%  10.0   15s
 244355 95546 1.0000e+09   46   57 1.5000e+09 1.0000e+09  33.3%  10.5   20s
 296715 108650 1.5000e+09   67   39 1.5000e+09 1.0369e+09  30.9%  10.8   25s
 348595 124537 infeasible   44      1.5000e+09 1.1000e+09  26.7%  11.0   30s
*366132 129045              67    1.500012e+09 1.1000e+09  26.7%  11.2   32s
*366143 128793              70    1.500012e+09 1.1000e+09  26.7%  11.2   32s
*366154 128572              71    1.500012e+09 1.1000e+09  26.7%  11.2   32s
*394548 91436              75    1.466687e+09 1.1000e+09  25.0%  11.2   34s
*395671 87004              59    1.450012e+09 1.1000e+09  24.1%  11.2   34s
 397621 87807 1.3500e+09   45   45 1.4500e+09 1.1000e+09  24.1%  11.2   35s
*397675 78163              65    1.400013e+09 1.1000e+09  21.4%  11.2   35s
*401953 79226              47    1.400013e+09 1.1000e+09  21.4%  11.2   35s
*401958 79173              49    1.400013e+09 1.1000e+09  21.4%  11.2   35s
*402031 79115              45    1.400013e+09 1.1000e+09  21.4%  11.2   35s
 446479 86430 infeasible   46      1.4000e+09 1.1000e+09  21.4%  11.2   40s
*453150 34778              72    1.280022e+09 1.1000e+09  14.1%  11.2   40s
*454369 26834              42    1.200013e+09 1.1000e+09  8.33%  11.2   40s

Cutting planes:
  Gomory: 112
  Cover: 3
  Implied bound: 26
  MIR: 26
  Flow cover: 183
  GUB cover: 1
  Inf proof: 1
  RLT: 138
  Relax-and-lift: 84

Explored 468910 nodes (5116437 simplex iterations) in 41.49 seconds
Thread count was 8 (of 8 available processors)

Solution count 10: 1.20001e+09 1.28002e+09 1.40001e+09 ... 1.50001e+09

Optimal solution found (tolerance 1.00e-04)
Best objective 1.200012600000e+09, best bound 1.200003400000e+09, gap 0.0008%
